c nombre: 18
c densidad: 0.3
p edges 70 741
e 1 2
e 1 4
e 1 17
e 1 20
e 1 22
e 1 23
e 1 24
e 1 27
e 1 28
e 1 30
e 1 33
e 1 38
e 1 40
e 1 41
e 1 50
e 1 53
e 1 56
e 1 60
e 1 62
e 1 66
e 1 68
e 2 5
e 2 6
e 2 9
e 2 15
e 2 19
e 2 24
e 2 27
e 2 28
e 2 32
e 2 38
e 2 39
e 2 40
e 2 45
e 2 48
e 2 52
e 2 53
e 2 54
e 2 55
e 2 56
e 2 58
e 2 59
e 2 61
e 2 65
e 2 68
e 3 4
e 3 5
e 3 12
e 3 23
e 3 24
e 3 25
e 3 27
e 3 32
e 3 33
e 3 34
e 3 38
e 3 39
e 3 41
e 3 42
e 3 49
e 3 51
e 3 54
e 3 58
e 3 64
e 3 66
e 4 5
e 4 10
e 4 11
e 4 17
e 4 20
e 4 23
e 4 25
e 4 26
e 4 28
e 4 29
e 4 31
e 4 33
e 4 37
e 4 40
e 4 45
e 4 46
e 4 48
e 4 49
e 4 50
e 4 51
e 4 58
e 4 59
e 4 62
e 4 63
e 4 64
e 4 66
e 5 12
e 5 13
e 5 15
e 5 16
e 5 17
e 5 21
e 5 23
e 5 24
e 5 27
e 5 28
e 5 30
e 5 39
e 5 44
e 5 47
e 5 50
e 5 54
e 5 61
e 5 66
e 6 7
e 6 9
e 6 16
e 6 23
e 6 27
e 6 33
e 6 35
e 6 37
e 6 38
e 6 40
e 6 41
e 6 42
e 6 48
e 6 49
e 6 59
e 6 65
e 6 66
e 6 67
e 6 68
e 7 11
e 7 19
e 7 24
e 7 26
e 7 36
e 7 43
e 7 44
e 7 48
e 7 54
e 7 56
e 7 57
e 7 58
e 7 60
e 7 65
e 7 68
e 7 69
e 8 11
e 8 18
e 8 22
e 8 28
e 8 29
e 8 33
e 8 36
e 8 41
e 8 45
e 8 49
e 8 50
e 8 51
e 8 58
e 8 62
e 8 64
e 8 67
e 8 69
e 9 11
e 9 13
e 9 14
e 9 16
e 9 18
e 9 19
e 9 22
e 9 23
e 9 24
e 9 30
e 9 35
e 9 36
e 9 40
e 9 46
e 9 47
e 9 50
e 9 53
e 9 59
e 9 70
e 10 12
e 10 15
e 10 18
e 10 20
e 10 21
e 10 27
e 10 33
e 10 42
e 10 46
e 10 47
e 10 49
e 10 68
e 11 13
e 11 20
e 11 21
e 11 23
e 11 26
e 11 27
e 11 29
e 11 30
e 11 35
e 11 39
e 11 41
e 11 44
e 11 48
e 11 55
e 11 56
e 11 58
e 11 63
e 11 68
e 12 19
e 12 29
e 12 34
e 12 38
e 12 39
e 12 41
e 12 43
e 12 51
e 12 56
e 12 57
e 12 60
e 12 63
e 12 64
e 12 68
e 13 22
e 13 23
e 13 25
e 13 27
e 13 32
e 13 33
e 13 34
e 13 37
e 13 42
e 13 44
e 13 47
e 13 52
e 13 56
e 13 69
e 13 70
e 14 20
e 14 21
e 14 22
e 14 27
e 14 33
e 14 36
e 14 37
e 14 39
e 14 48
e 14 51
e 14 52
e 14 54
e 14 59
e 14 62
e 14 63
e 14 66
e 14 68
e 15 17
e 15 18
e 15 20
e 15 27
e 15 29
e 15 30
e 15 37
e 15 38
e 15 45
e 15 46
e 15 48
e 15 50
e 15 52
e 15 53
e 15 54
e 15 55
e 15 58
e 15 64
e 15 66
e 15 69
e 16 18
e 16 20
e 16 27
e 16 28
e 16 30
e 16 31
e 16 33
e 16 35
e 16 40
e 16 44
e 16 47
e 16 48
e 16 63
e 16 70
e 17 20
e 17 21
e 17 27
e 17 31
e 17 32
e 17 33
e 17 39
e 17 41
e 17 42
e 17 43
e 17 51
e 17 55
e 17 60
e 17 61
e 17 62
e 17 63
e 17 67
e 18 22
e 18 23
e 18 24
e 18 27
e 18 30
e 18 32
e 18 34
e 18 42
e 18 44
e 18 48
e 18 49
e 18 51
e 18 58
e 18 61
e 18 64
e 19 21
e 19 27
e 19 32
e 19 33
e 19 34
e 19 35
e 19 37
e 19 38
e 19 42
e 19 45
e 19 50
e 19 56
e 19 57
e 19 59
e 19 61
e 19 64
e 19 66
e 19 68
e 19 69
e 19 70
e 20 23
e 20 25
e 20 26
e 20 30
e 20 33
e 20 34
e 20 41
e 20 42
e 20 43
e 20 44
e 20 45
e 20 46
e 20 47
e 20 52
e 20 53
e 20 54
e 20 56
e 20 60
e 20 61
e 20 62
e 20 64
e 20 65
e 20 66
e 21 22
e 21 26
e 21 29
e 21 31
e 21 34
e 21 42
e 21 48
e 21 51
e 21 52
e 21 54
e 21 57
e 21 60
e 21 65
e 21 67
e 21 69
e 21 70
e 22 25
e 22 27
e 22 29
e 22 31
e 22 33
e 22 34
e 22 37
e 22 40
e 22 45
e 22 46
e 22 47
e 22 48
e 22 51
e 22 55
e 22 57
e 22 58
e 22 61
e 22 63
e 22 64
e 22 67
e 22 69
e 23 24
e 23 25
e 23 26
e 23 31
e 23 33
e 23 39
e 23 44
e 23 46
e 23 47
e 23 50
e 23 59
e 23 60
e 23 61
e 23 69
e 24 25
e 24 29
e 24 31
e 24 32
e 24 33
e 24 36
e 24 41
e 24 43
e 24 44
e 24 51
e 24 52
e 24 53
e 24 56
e 24 59
e 24 61
e 24 62
e 24 64
e 24 65
e 24 66
e 24 67
e 25 30
e 25 31
e 25 41
e 25 43
e 25 50
e 25 63
e 26 27
e 26 28
e 26 30
e 26 31
e 26 32
e 26 35
e 26 37
e 26 38
e 26 41
e 26 42
e 26 47
e 26 51
e 26 54
e 26 58
e 26 60
e 26 61
e 26 64
e 26 70
e 27 30
e 27 31
e 27 32
e 27 34
e 27 40
e 27 44
e 27 49
e 27 51
e 27 52
e 27 57
e 27 61
e 27 64
e 27 70
e 28 31
e 28 33
e 28 36
e 28 42
e 28 43
e 28 46
e 28 48
e 28 51
e 28 53
e 28 54
e 28 55
e 28 62
e 28 63
e 29 33
e 29 34
e 29 36
e 29 43
e 29 44
e 29 47
e 29 51
e 29 58
e 29 59
e 29 61
e 29 64
e 29 67
e 29 70
e 30 37
e 30 41
e 30 46
e 30 49
e 30 60
e 30 62
e 30 70
e 31 32
e 31 37
e 31 40
e 31 41
e 31 43
e 31 49
e 31 52
e 31 59
e 31 62
e 31 66
e 31 68
e 31 69
e 32 34
e 32 35
e 32 39
e 32 42
e 32 43
e 32 48
e 32 49
e 32 63
e 32 64
e 32 66
e 33 34
e 33 35
e 33 37
e 33 39
e 33 40
e 33 42
e 33 48
e 33 52
e 33 54
e 33 58
e 33 64
e 33 68
e 34 35
e 34 37
e 34 42
e 34 45
e 34 51
e 34 52
e 34 53
e 34 57
e 34 58
e 34 60
e 34 64
e 34 67
e 34 69
e 35 40
e 35 42
e 35 43
e 35 46
e 35 48
e 35 49
e 35 50
e 35 51
e 35 53
e 35 57
e 35 62
e 35 67
e 36 40
e 36 41
e 36 43
e 36 49
e 36 50
e 36 52
e 36 56
e 36 60
e 36 61
e 36 63
e 36 64
e 37 40
e 37 42
e 37 43
e 37 44
e 37 45
e 37 46
e 37 47
e 37 48
e 37 53
e 37 69
e 38 46
e 38 54
e 38 58
e 38 59
e 38 67
e 39 43
e 39 44
e 39 49
e 39 50
e 39 51
e 39 54
e 39 55
e 39 57
e 39 61
e 39 63
e 39 64
e 39 67
e 39 69
e 39 70
e 40 46
e 40 52
e 40 53
e 40 54
e 40 61
e 40 65
e 40 66
e 40 68
e 40 70
e 41 43
e 41 46
e 41 48
e 41 50
e 41 54
e 41 55
e 41 56
e 41 61
e 41 64
e 41 67
e 41 68
e 41 69
e 42 49
e 42 60
e 42 62
e 42 64
e 42 67
e 42 70
e 43 44
e 43 45
e 43 52
e 43 59
e 43 63
e 44 46
e 44 48
e 44 49
e 44 52
e 44 53
e 44 54
e 44 56
e 44 57
e 44 59
e 44 63
e 44 65
e 44 66
e 44 67
e 44 69
e 45 49
e 45 50
e 45 51
e 45 56
e 45 57
e 46 48
e 46 50
e 46 54
e 46 56
e 46 58
e 46 60
e 46 63
e 46 67
e 46 68
e 47 54
e 48 50
e 48 56
e 48 58
e 48 60
e 48 61
e 48 62
e 48 63
e 48 66
e 48 67
e 48 68
e 49 50
e 49 51
e 49 52
e 49 57
e 49 61
e 49 65
e 49 66
e 50 53
e 50 57
e 50 59
e 51 52
e 51 54
e 51 56
e 51 57
e 51 58
e 51 59
e 51 62
e 51 63
e 51 66
e 51 67
e 51 69
e 52 53
e 52 54
e 52 59
e 52 66
e 52 70
e 53 61
e 53 64
e 53 70
e 54 56
e 54 57
e 54 61
e 54 65
e 54 68
e 55 60
e 55 62
e 55 65
e 55 67
e 55 68
e 55 70
e 56 65
e 56 67
e 56 70
e 57 60
e 57 62
e 58 61
e 58 64
e 59 60
e 59 64
e 59 66
e 59 67
e 60 63
e 60 64
e 60 65
e 60 67
e 61 62
e 61 63
e 61 65
e 62 66
e 62 68
e 62 70
e 63 68
e 65 68
e 65 69
e 69 70
